************************************************************************
file with basedata            : mm4_.bas
initial value random generator: 479127362
************************************************************************
projects                      :  1
jobs (incl. supersource/sink ):  12
horizon                       :  74
RESOURCES
  - renewable                 :  2   R
  - nonrenewable              :  2   N
  - doubly constrained        :  0   D
************************************************************************
PROJECT INFORMATION:
pronr.  #jobs rel.date duedate tardcost  MPM-Time
    1     10      0       12        7       12
************************************************************************
PRECEDENCE RELATIONS:
jobnr.    #modes  #successors   successors
   0        1          3           1   2   3
   1        3          1           8
   2        3          3           7   8   9
   3        3          2           4   5
   4        3          2           7   8
   5        3          2           6   9
   6        3          1          10
   7        3          1          10
   8        3          1          11
   9        3          1          11
  10        3          1          11
  11        1          0        
************************************************************************
REQUESTS/DURATIONS:
jobnr. mode duration  R 1  R 2  R 3  R 4  E(W 1)
------------------------------------------------------------------------
  0      1     0       0    0    0    0     0
  1      1     6       0    8    0    5    78
  2      1     2       0    3    5    0    16
  3      1     3       7    0    4    0    33
  4      1     7       3    0    5    0    56
  5      1     1       0    6    0    5    11
  6      1     4       1    0    0    6    32
  7      1     1       8    0    3    0    11
  8      1     2       6    0    7    0    26
  9      1     6       0   10    0    6    96
 10      1     1       0    9    0    8    17
 11      1     0       0    0    0    0     0
************************************************************************
RESOURCEAVAILABILITIES:
  R 1
   92
************************************************************************
RESOURCE LIMITS:
jobnr.  l(R 1)  u(R 1)
------------------------------------------------------------------------
  0        0       0
  1        7      13
  2        5       8
  3        6      11
  4        5       8
  5        6      11
  6        4       8
  7        6      11
  8        7      13
  9        8      16
 10        9      17
 11        0       0
************************************************************************
SCENARIOS:
------------------------------------------------------------------------
RESOURCE k = 1
s = 1: (0, 81, 17, 37, 38, 7, 22, 9, 15, 127, 17, 0)
s = 2: (0, 80, 15, 34, 40, 15, 26, 8, 26, 64, 24, 0)
s = 3: (0, 70, 12, 24, 53, 9, 31, 10, 37, 71, 19, 0)
s = 4: (0, 50, 14, 19, 58, 13, 47, 8, 24, 98, 17, 0)
s = 5: (0, 54, 24, 25, 68, 8, 45, 10, 33, 103, 16, 0)
s = 6: (0, 119, 11, 28, 51, 9, 24, 12, 26, 73, 22, 0)
s = 7: (0, 104, 19, 26, 47, 14, 23, 7, 25, 90, 19, 0)
s = 8: (0, 67, 12, 34, 74, 12, 29, 7, 28, 67, 19, 0)
s = 9: (0, 75, 17, 30, 39, 13, 48, 9, 31, 55, 12, 0)
s = 10: (0, 81, 18, 26, 77, 19, 50, 14, 26, 69, 14, 0)
s = 11: (0, 85, 18, 23, 37, 17, 45, 18, 27, 110, 17, 0)
s = 12: (0, 76, 17, 44, 40, 18, 38, 13, 37, 130, 13, 0)
s = 13: (0, 85, 20, 29, 45, 14, 45, 14, 22, 77, 17, 0)
s = 14: (0, 60, 22, 41, 90, 14, 22, 9, 28, 82, 18, 0)
s = 15: (0, 108, 18, 24, 67, 7, 35, 11, 23, 73, 13, 0)
s = 16: (0, 88, 11, 24, 107, 12, 27, 11, 22, 77, 17, 0)
s = 17: (0, 124, 16, 30, 81, 8, 37, 8, 26, 119, 23, 0)
s = 18: (0, 88, 18, 20, 65, 14, 23, 14, 30, 74, 17, 0)
s = 19: (0, 62, 13, 37, 34, 9, 28, 8, 22, 120, 14, 0)
s = 20: (0, 70, 22, 22, 56, 12, 37, 8, 39, 85, 11, 0)
s = 21: (0, 68, 24, 32, 70, 10, 29, 13, 24, 72, 10, 0)
s = 22: (0, 63, 16, 30, 38, 12, 19, 12, 19, 83, 16, 0)
s = 23: (0, 110, 17, 36, 60, 13, 33, 15, 19, 84, 17, 0)
s = 24: (0, 43, 16, 28, 54, 12, 27, 10, 22, 86, 17, 0)
s = 25: (0, 51, 11, 36, 44, 13, 43, 6, 23, 170, 15, 0)
s = 26: (0, 57, 12, 27, 75, 9, 36, 12, 29, 63, 14, 0)
s = 27: (0, 92, 13, 23, 48, 10, 23, 16, 20, 111, 16, 0)
s = 28: (0, 55, 23, 28, 54, 8, 34, 17, 37, 143, 21, 0)
s = 29: (0, 65, 19, 25, 72, 11, 30, 16, 36, 132, 17, 0)
s = 30: (0, 73, 18, 44, 37, 7, 38, 10, 26, 110, 18, 0)
s = 31: (0, 74, 13, 35, 59, 8, 46, 16, 24, 124, 17, 0)
s = 32: (0, 87, 10, 28, 54, 11, 27, 11, 25, 61, 20, 0)
s = 33: (0, 71, 20, 47, 51, 11, 31, 7, 42, 77, 11, 0)
s = 34: (0, 57, 14, 24, 86, 10, 28, 7, 27, 68, 19, 0)
s = 35: (0, 83, 12, 37, 46, 11, 33, 10, 21, 150, 15, 0)
s = 36: (0, 92, 16, 34, 72, 11, 27, 8, 21, 94, 13, 0)
s = 37: (0, 80, 19, 35, 42, 15, 48, 13, 17, 89, 9, 0)
s = 38: (0, 95, 16, 35, 53, 12, 31, 7, 45, 101, 25, 0)
s = 39: (0, 59, 23, 23, 51, 10, 24, 8, 18, 83, 11, 0)
s = 40: (0, 45, 13, 45, 70, 12, 19, 6, 29, 73, 16, 0)
s = 41: (0, 106, 17, 52, 69, 19, 36, 8, 29, 106, 20, 0)
s = 42: (0, 94, 13, 33, 66, 13, 37, 11, 20, 66, 12, 0)
s = 43: (0, 65, 13, 29, 59, 10, 30, 12, 26, 74, 12, 0)
s = 44: (0, 69, 15, 38, 42, 11, 50, 13, 39, 101, 10, 0)
s = 45: (0, 104, 12, 43, 45, 9, 51, 17, 27, 118, 22, 0)
s = 46: (0, 82, 10, 23, 62, 11, 24, 11, 31, 69, 15, 0)
s = 47: (0, 63, 24, 29, 74, 8, 18, 19, 24, 66, 34, 0)
s = 48: (0, 86, 20, 29, 54, 15, 24, 11, 28, 166, 12, 0)
s = 49: (0, 56, 19, 25, 81, 11, 36, 13, 38, 58, 17, 0)
s = 50: (0, 59, 14, 27, 61, 13, 37, 7, 27, 135, 10, 0)
s = 51: (0, 65, 31, 40, 66, 7, 38, 15, 41, 66, 15, 0)
s = 52: (0, 68, 21, 26, 48, 12, 35, 19, 30, 73, 25, 0)
s = 53: (0, 83, 18, 37, 92, 17, 46, 10, 26, 75, 14, 0)
s = 54: (0, 95, 19, 27, 63, 10, 21, 8, 34, 133, 15, 0)
s = 55: (0, 72, 18, 34, 57, 8, 19, 8, 19, 50, 18, 0)
s = 56: (0, 112, 22, 30, 68, 11, 30, 12, 24, 63, 11, 0)
s = 57: (0, 88, 16, 35, 61, 12, 38, 14, 34, 128, 12, 0)
s = 58: (0, 116, 14, 23, 61, 10, 36, 7, 34, 121, 23, 0)
s = 59: (0, 93, 10, 24, 32, 8, 43, 10, 24, 65, 12, 0)
s = 60: (0, 100, 10, 24, 60, 14, 37, 10, 17, 109, 18, 0)
s = 61: (0, 45, 22, 36, 65, 13, 60, 16, 36, 133, 13, 0)
s = 62: (0, 43, 18, 29, 62, 14, 35, 14, 23, 60, 13, 0)
s = 63: (0, 76, 20, 45, 90, 13, 33, 18, 26, 159, 21, 0)
s = 64: (0, 123, 13, 30, 49, 17, 38, 12, 26, 90, 12, 0)
s = 65: (0, 58, 11, 28, 33, 8, 25, 9, 17, 143, 21, 0)
s = 66: (0, 46, 9, 28, 91, 17, 26, 12, 22, 98, 17, 0)
s = 67: (0, 130, 17, 29, 57, 16, 26, 12, 20, 84, 15, 0)
s = 68: (0, 96, 22, 51, 85, 14, 42, 9, 30, 53, 22, 0)
s = 69: (0, 60, 11, 42, 35, 9, 21, 17, 17, 86, 12, 0)
s = 70: (0, 67, 18, 32, 38, 17, 36, 9, 22, 112, 12, 0)
s = 71: (0, 58, 19, 31, 49, 14, 38, 10, 36, 105, 23, 0)
s = 72: (0, 89, 18, 28, 43, 8, 46, 15, 28, 52, 12, 0)
s = 73: (0, 58, 19, 39, 38, 18, 34, 12, 18, 131, 13, 0)
s = 74: (0, 50, 11, 36, 50, 11, 20, 11, 26, 87, 13, 0)
s = 75: (0, 103, 11, 31, 67, 11, 24, 15, 41, 80, 18, 0)
s = 76: (0, 78, 18, 34, 90, 11, 42, 12, 19, 70, 17, 0)
s = 77: (0, 115, 11, 50, 36, 12, 27, 14, 25, 99, 16, 0)
s = 78: (0, 54, 14, 32, 70, 9, 21, 14, 25, 92, 19, 0)
s = 79: (0, 74, 26, 22, 35, 18, 29, 11, 32, 71, 19, 0)
s = 80: (0, 108, 18, 34, 62, 16, 37, 13, 24, 60, 17, 0)
s = 81: (0, 68, 23, 26, 79, 16, 38, 11, 23, 159, 10, 0)
s = 82: (0, 77, 13, 39, 69, 14, 35, 10, 31, 70, 24, 0)
s = 83: (0, 83, 17, 39, 70, 8, 57, 11, 20, 69, 21, 0)
s = 84: (0, 90, 14, 31, 46, 9, 29, 22, 34, 117, 12, 0)
s = 85: (0, 46, 18, 37, 49, 8, 46, 11, 24, 83, 19, 0)
s = 86: (0, 89, 26, 33, 33, 10, 24, 15, 33, 73, 30, 0)
s = 87: (0, 81, 12, 42, 64, 15, 53, 10, 23, 67, 11, 0)
s = 88: (0, 63, 12, 22, 83, 10, 22, 16, 20, 89, 22, 0)
s = 89: (0, 73, 10, 38, 93, 8, 56, 8, 33, 60, 19, 0)
s = 90: (0, 90, 18, 30, 37, 8, 30, 10, 25, 131, 11, 0)
s = 91: (0, 91, 14, 54, 99, 7, 50, 12, 22, 85, 16, 0)
s = 92: (0, 56, 24, 29, 44, 17, 30, 12, 33, 108, 20, 0)
s = 93: (0, 44, 26, 38, 62, 13, 28, 9, 32, 68, 19, 0)
s = 94: (0, 100, 16, 24, 56, 13, 22, 8, 21, 99, 17, 0)
s = 95: (0, 62, 22, 31, 85, 11, 22, 10, 20, 142, 23, 0)
s = 96: (0, 109, 16, 29, 68, 8, 41, 17, 16, 67, 19, 0)
s = 97: (0, 59, 16, 22, 70, 15, 31, 19, 37, 100, 13, 0)
s = 98: (0, 64, 14, 24, 41, 15, 32, 10, 24, 73, 11, 0)
s = 99: (0, 42, 10, 28, 74, 18, 35, 13, 15, 70, 20, 0)
s = 100: (0, 53, 10, 33, 49, 13, 49, 16, 32, 82, 13, 0)
s = 101: (0, 89, 14, 21, 46, 19, 24, 8, 31, 138, 20, 0)
s = 102: (0, 112, 11, 42, 47, 11, 30, 9, 30, 73, 16, 0)
s = 103: (0, 85, 22, 20, 63, 8, 24, 7, 31, 109, 19, 0)
s = 104: (0, 80, 14, 25, 65, 9, 53, 11, 22, 71, 19, 0)
s = 105: (0, 53, 21, 38, 73, 8, 46, 7, 16, 76, 14, 0)
s = 106: (0, 102, 16, 24, 43, 8, 42, 15, 30, 96, 23, 0)
s = 107: (0, 54, 11, 32, 36, 9, 19, 9, 34, 132, 24, 0)
s = 108: (0, 78, 19, 29, 48, 10, 35, 9, 27, 64, 18, 0)
s = 109: (0, 50, 12, 37, 49, 17, 41, 7, 35, 107, 11, 0)
s = 110: (0, 86, 18, 41, 54, 13, 40, 10, 25, 91, 11, 0)
s = 111: (0, 63, 16, 23, 72, 12, 27, 12, 19, 72, 29, 0)
s = 112: (0, 102, 17, 26, 41, 8, 27, 10, 23, 119, 11, 0)
s = 113: (0, 92, 13, 29, 82, 13, 41, 12, 26, 55, 12, 0)
s = 114: (0, 49, 18, 43, 35, 9, 23, 8, 26, 86, 25, 0)
s = 115: (0, 60, 25, 45, 68, 16, 24, 11, 23, 100, 18, 0)
s = 116: (0, 51, 13, 34, 55, 8, 43, 9, 30, 53, 14, 0)
s = 117: (0, 107, 14, 55, 34, 9, 25, 13, 26, 109, 10, 0)
s = 118: (0, 53, 14, 32, 35, 10, 27, 9, 23, 70, 22, 0)
s = 119: (0, 66, 12, 37, 46, 8, 30, 16, 26, 101, 17, 0)
s = 120: (0, 55, 27, 52, 81, 6, 22, 9, 33, 90, 21, 0)
s = 121: (0, 78, 18, 39, 37, 12, 22, 10, 31, 97, 15, 0)
s = 122: (0, 67, 20, 49, 42, 17, 41, 10, 30, 62, 16, 0)
s = 123: (0, 60, 14, 35, 92, 7, 46, 16, 27, 83, 14, 0)
s = 124: (0, 86, 14, 28, 86, 10, 28, 12, 29, 108, 15, 0)
s = 125: (0, 96, 18, 43, 86, 9, 23, 8, 25, 122, 11, 0)
s = 126: (0, 98, 23, 50, 46, 8, 40, 10, 22, 78, 19, 0)
s = 127: (0, 87, 16, 23, 38, 15, 29, 8, 23, 158, 11, 0)
s = 128: (0, 107, 17, 45, 56, 9, 26, 14, 17, 79, 12, 0)
s = 129: (0, 86, 14, 24, 40, 13, 28, 12, 21, 114, 16, 0)
s = 130: (0, 113, 11, 36, 51, 10, 29, 7, 20, 62, 17, 0)
s = 131: (0, 85, 14, 37, 76, 11, 29, 14, 22, 123, 19, 0)
s = 132: (0, 107, 12, 29, 50, 15, 30, 10, 24, 92, 15, 0)
s = 133: (0, 103, 20, 53, 68, 16, 20, 12, 27, 84, 15, 0)
s = 134: (0, 109, 23, 28, 58, 19, 30, 15, 27, 74, 16, 0)
s = 135: (0, 76, 19, 22, 60, 9, 42, 9, 27, 107, 32, 0)
s = 136: (0, 70, 16, 42, 95, 12, 35, 12, 23, 84, 19, 0)
s = 137: (0, 74, 16, 30, 64, 15, 27, 15, 17, 55, 24, 0)
s = 138: (0, 125, 11, 28, 86, 19, 24, 13, 27, 97, 14, 0)
s = 139: (0, 66, 15, 36, 106, 8, 32, 11, 36, 49, 17, 0)
s = 140: (0, 41, 17, 41, 51, 13, 35, 10, 34, 75, 18, 0)
s = 141: (0, 83, 14, 20, 83, 9, 23, 10, 23, 74, 13, 0)
s = 142: (0, 136, 11, 47, 39, 13, 36, 8, 21, 160, 18, 0)
s = 143: (0, 92, 13, 35, 46, 9, 24, 10, 33, 57, 23, 0)
s = 144: (0, 81, 15, 37, 49, 11, 50, 12, 29, 77, 10, 0)
s = 145: (0, 53, 19, 39, 35, 7, 24, 15, 31, 103, 13, 0)
s = 146: (0, 89, 22, 44, 32, 13, 33, 9, 30, 116, 25, 0)
s = 147: (0, 102, 23, 39, 65, 8, 21, 18, 27, 61, 18, 0)
s = 148: (0, 56, 20, 21, 51, 10, 46, 7, 38, 124, 14, 0)
s = 149: (0, 156, 15, 38, 36, 10, 39, 14, 33, 92, 18, 0)
s = 150: (0, 97, 11, 23, 44, 8, 32, 18, 36, 118, 16, 0)
s = 151: (0, 77, 23, 49, 60, 11, 29, 8, 22, 95, 16, 0)
s = 152: (0, 49, 11, 30, 46, 15, 21, 13, 22, 141, 12, 0)
s = 153: (0, 59, 9, 41, 72, 11, 27, 9, 15, 68, 23, 0)
s = 154: (0, 80, 10, 27, 86, 15, 33, 12, 39, 124, 14, 0)
s = 155: (0, 77, 23, 26, 45, 13, 26, 7, 27, 90, 11, 0)
s = 156: (0, 46, 15, 32, 66, 10, 33, 9, 16, 84, 22, 0)
s = 157: (0, 50, 26, 24, 74, 12, 36, 9, 33, 56, 16, 0)
s = 158: (0, 74, 17, 30, 54, 16, 38, 7, 29, 62, 12, 0)
s = 159: (0, 63, 14, 21, 38, 10, 36, 11, 35, 65, 11, 0)
s = 160: (0, 69, 15, 35, 45, 9, 35, 9, 24, 131, 19, 0)
s = 161: (0, 93, 28, 27, 48, 14, 33, 13, 38, 61, 19, 0)
s = 162: (0, 78, 14, 32, 52, 14, 29, 17, 21, 89, 15, 0)
s = 163: (0, 94, 20, 34, 46, 9, 20, 13, 33, 114, 19, 0)
s = 164: (0, 105, 20, 24, 40, 7, 36, 11, 16, 121, 19, 0)
s = 165: (0, 75, 26, 40, 35, 10, 27, 10, 24, 96, 21, 0)
s = 166: (0, 64, 19, 46, 79, 13, 31, 7, 20, 80, 23, 0)
s = 167: (0, 59, 12, 22, 58, 17, 41, 13, 17, 81, 17, 0)
s = 168: (0, 54, 13, 21, 51, 7, 20, 11, 29, 117, 10, 0)
s = 169: (0, 59, 20, 33, 59, 9, 25, 15, 30, 101, 17, 0)
s = 170: (0, 73, 21, 22, 57, 14, 20, 16, 21, 76, 13, 0)
s = 171: (0, 45, 12, 31, 39, 10, 36, 6, 30, 128, 29, 0)
s = 172: (0, 52, 12, 28, 65, 16, 27, 13, 17, 125, 22, 0)
s = 173: (0, 109, 21, 43, 75, 12, 39, 9, 32, 81, 14, 0)
s = 174: (0, 117, 22, 23, 54, 7, 34, 12, 34, 79, 18, 0)
s = 175: (0, 73, 9, 20, 67, 9, 44, 9, 24, 69, 16, 0)
s = 176: (0, 84, 13, 61, 43, 12, 28, 16, 17, 73, 15, 0)
s = 177: (0, 101, 10, 43, 75, 10, 59, 9, 35, 117, 18, 0)
s = 178: (0, 58, 13, 23, 77, 12, 32, 12, 24, 94, 19, 0)
s = 179: (0, 141, 10, 44, 98, 8, 34, 10, 25, 123, 22, 0)
s = 180: (0, 69, 21, 43, 62, 11, 17, 12, 34, 73, 17, 0)
s = 181: (0, 78, 13, 25, 77, 13, 40, 9, 43, 114, 15, 0)
s = 182: (0, 134, 10, 35, 62, 16, 30, 12, 49, 103, 19, 0)
s = 183: (0, 53, 19, 43, 76, 11, 37, 9, 21, 136, 16, 0)
s = 184: (0, 55, 14, 40, 29, 6, 25, 8, 24, 65, 12, 0)
s = 185: (0, 68, 16, 22, 63, 14, 33, 9, 19, 59, 14, 0)
s = 186: (0, 53, 12, 37, 51, 12, 18, 20, 39, 113, 17, 0)
s = 187: (0, 68, 22, 49, 62, 12, 50, 8, 23, 98, 13, 0)
s = 188: (0, 78, 18, 49, 43, 13, 24, 15, 25, 97, 15, 0)
s = 189: (0, 56, 29, 47, 35, 12, 43, 7, 21, 84, 18, 0)
s = 190: (0, 130, 17, 23, 62, 11, 21, 13, 19, 112, 19, 0)
s = 191: (0, 120, 18, 45, 38, 12, 31, 11, 43, 76, 16, 0)
s = 192: (0, 101, 20, 53, 44, 12, 27, 8, 29, 107, 16, 0)
s = 193: (0, 71, 12, 26, 55, 11, 32, 13, 24, 122, 11, 0)
s = 194: (0, 47, 9, 45, 32, 14, 27, 7, 23, 72, 15, 0)
s = 195: (0, 61, 12, 46, 61, 14, 43, 8, 37, 98, 27, 0)
s = 196: (0, 126, 10, 26, 57, 8, 18, 12, 20, 83, 18, 0)
s = 197: (0, 73, 18, 40, 60, 11, 41, 8, 23, 106, 16, 0)
s = 198: (0, 83, 24, 39, 56, 10, 18, 9, 34, 134, 17, 0)
s = 199: (0, 88, 21, 33, 49, 12, 33, 10, 28, 111, 15, 0)
s = 200: (0, 63, 15, 35, 46, 6, 25, 8, 24, 68, 18, 0)
************************************************************************
ES/LS-VALUES:
jobnr.   ES(i)    LS(i)
------------------------------------------------------------------------
  0        0        0
  1        0       58
  2        0       59
  3        0       50
  4        5       56
  5        5       61
  6        6       64
  7       18       70
  8       18       70
  9        6       63
 10       20       72
 11       22       74
************************************************************************
BIG-M-VALUES:
M1 = 23, M2 = 170
************************************************************************
